50
120
99
97
95
94
88
87
85
83
82
78
75
72
71
71
70
69
67
67
65
64
63
62
59
59
58
58
58
58
58
54
53
53
52
49
49
48
45
45
44
43
43
42
40
38
36
34
30
30
24
20
